NAME: a280
DIMENSION: 17
EDGE_WEIGHT_TYPE: EUC_2D
NODE_COORD_SECTION
1 288 149
2 288 129
3 270 133
4 256 141
5 256 157
6 246 157
7 236 169
8 228 169
9 228 161
10 220 169
11 212 169
12 204 169
13 196 169
14 188 169
15 196 161
16 188 145
17 172 145
ACCEPTED_PROBABILITIES
0.0
0.13
0.93
0.08
0.87
0.95
0.95
0.87
0.59
0.83
0.8
0.45
0.95
0.85
0.67
0.97
0.08
OUTSOURCING_COSTS
0.0
0.43
6.75
3.75
5.3
5.37
4.1
2.27
6.42
1.33
4.29
4.83
2.11
6.86
5.71
0.83
3.27
